;; Mutation-Based Equivalence Benchmark
;; Source:     AutomatArk / instance15205.smt2
;; Mutations:  union_to_inter
;; Status:     sat
;;
;; Original regex vs mutated regex
;; Equivalence check: unsat ⟺ L(R1) = L(R2)

(set-info :smt-lib-version 2.6)
(set-info :category "mutation")
(set-info :status sat)
(set-logic QF_S)


;; R1: original
;; R2: mutated (union_to_inter)
(assert
  (not
    (=
      (re.++ (re.union (re.++ (str.to_re "J") (re.union (str.to_re "AN") (str.to_re "UN") (str.to_re "UL"))) (str.to_re "FEB") (str.to_re "MAR") (re.++ (str.to_re "A") (re.union (str.to_re "PR") (str.to_re "UG"))) (str.to_re "MAY") (str.to_re "SEP") (str.to_re "NOV") (str.to_re "DEC") (str.to_re "OCT")) (re.* (re.union (str.to_re " ") (str.to_re "\u{9}") (str.to_re "\u{a}") (str.to_re "\u{c}") (str.to_re "\u{d}"))) (re.union (re.++ (re.opt (str.to_re "0")) (re.range "1" "9")) (re.++ (str.to_re "1") (re.range "0" "9")) (re.++ (str.to_re "2") (re.range "0" "9")) (re.++ (str.to_re "3") (re.range "0" "1"))) (re.* (re.union (str.to_re " ") (str.to_re "\u{9}") (str.to_re "\u{a}") (str.to_re "\u{c}") (str.to_re "\u{d}"))) (str.to_re ",") (re.* (re.union (str.to_re " ") (str.to_re "\u{9}") (str.to_re "\u{a}") (str.to_re "\u{c}") (str.to_re "\u{d}"))) (str.to_re "\u{a}0") (re.range "0" "9"))
      (re.++ (re.union (re.++ (str.to_re "J") (re.inter (str.to_re "AN") (str.to_re "UN") (str.to_re "UL"))) (str.to_re "FEB") (str.to_re "MAR") (re.++ (str.to_re "A") (re.union (str.to_re "PR") (str.to_re "UG"))) (str.to_re "MAY") (str.to_re "SEP") (str.to_re "NOV") (str.to_re "DEC") (str.to_re "OCT")) (re.* (re.union (str.to_re " ") (str.to_re "\u{9}") (str.to_re "\u{a}") (str.to_re "\u{c}") (str.to_re "\u{d}"))) (re.union (re.++ (re.opt (str.to_re "0")) (re.range "1" "9")) (re.++ (str.to_re "1") (re.range "0" "9")) (re.++ (str.to_re "2") (re.range "0" "9")) (re.++ (str.to_re "3") (re.range "0" "1"))) (re.* (re.union (str.to_re " ") (str.to_re "\u{9}") (str.to_re "\u{a}") (str.to_re "\u{c}") (str.to_re "\u{d}"))) (str.to_re ",") (re.* (re.union (str.to_re " ") (str.to_re "\u{9}") (str.to_re "\u{a}") (str.to_re "\u{c}") (str.to_re "\u{d}"))) (str.to_re "\u{a}0") (re.range "0" "9")))))

(check-sat)
(exit)
